true true true
presolving:
presolving (0 rounds: 0 fast, 0 medium, 0 exhaustive):
 0 deleted vars, 0 deleted constraints, 0 added constraints, 0 tightened bounds, 0 added holes, 0 changed sides, 0 changed coefficients
 0 implications, 0 cliques
presolved problem has 49 variables (49 bin, 0 int, 0 impl, 0 cont) and 39 constraints
     39 constraints of type <linear>
transformed objective value is always integral (scale: 1)
Presolving Time: 0.00

 time | node  | left  |LP iter|LP it/n|mem/heur|mdpt |vars |cons |rows |cuts |sepa|confs|strbr|  dualbound   | primalbound  |  gap   | compl. 
p 0.0s|     1 |     0 |     0 |     - |shiftand|   0 |  49 |  39 |  39 |   0 |  0 |   0 |   0 |      --      | 1.000000e+01 |    Inf | unknown
 time | node  | left  |LP iter|LP it/n|mem/heur|mdpt |vars |cons |rows |cuts |sepa|confs|strbr|  dualbound   | primalbound  |  gap   | compl. 
  0.0s|     1 |     0 |    20 |     - |  1345k |   0 | 244 |  39 |  39 |   0 |  0 |   0 |   0 | 1.000000e+00 | 1.000000e+01 | 900.00%| unknown
 time | node  | left  |LP iter|LP it/n|mem/heur|mdpt |vars |cons |rows |cuts |sepa|confs|strbr|  dualbound   | primalbound  |  gap   | compl. 
  0.4s|     1 |     0 |   238 |     - |  2870k |   0 | 754 |  39 |  39 |   0 |  0 |   0 |   0 | 9.000000e+00 | 1.000000e+01 |  11.11%| unknown
 time | node  | left  |LP iter|LP it/n|mem/heur|mdpt |vars |cons |rows |cuts |sepa|confs|strbr|  dualbound   | primalbound  |  gap   | compl. 
  0.5s|     1 |     2 |   463 |     - |  3123k |   0 | 754 |  39 |  39 |   0 |  1 |   0 |   0 | 9.000000e+00 | 1.000000e+01 |  11.11%| unknown
 time | node  | left  |LP iter|LP it/n|mem/heur|mdpt |vars |cons |rows |cuts |sepa|confs|strbr|  dualbound   | primalbound  |  gap   | compl. 
  0.7s|     2 |     3 |   469 |   6.0 |  3170k |   1 | 756 |  39 |  39 |   0 |  1 |   0 |   0 | 9.000000e+00 | 1.000000e+01 |  11.11%| unknown
 time | node  | left  |LP iter|LP it/n|mem/heur|mdpt |vars |cons |rows |cuts |sepa|confs|strbr|  dualbound   | primalbound  |  gap   | compl. 
  0.8s|     3 |     4 |   500 |  18.5 |  3401k |   2 | 812 |  39 |  39 |   0 |  1 |   0 |   0 | 9.000000e+00 | 1.000000e+01 |  11.11%| unknown
 time | node  | left  |LP iter|LP it/n|mem/heur|mdpt |vars |cons |rows |cuts |sepa|confs|strbr|  dualbound   | primalbound  |  gap   | compl. 
  0.9s|     4 |     5 |   502 |  13.0 |  3406k |   3 | 812 |  39 |  39 |   0 |  1 |   0 |   0 | 9.000000e+00 | 1.000000e+01 |  11.11%| unknown
 time | node  | left  |LP iter|LP it/n|mem/heur|mdpt |vars |cons |rows |cuts |sepa|confs|strbr|  dualbound   | primalbound  |  gap   | compl. 
  1.1s|     5 |     6 |   541 |  19.5 |  3530k |   4 | 828 |  39 |  39 |   0 |  1 |   0 |   0 | 9.000000e+00 | 1.000000e+01 |  11.11%| unknown
 time | node  | left  |LP iter|LP it/n|mem/heur|mdpt |vars |cons |rows |cuts |sepa|confs|strbr|  dualbound   | primalbound  |  gap   | compl. 
  1.2s|     6 |     7 |   561 |  19.6 |  3797k |   4 | 828 |  39 |  39 |   0 |  1 |   0 |   0 | 9.000000e+00 | 1.000000e+01 |  11.11%| unknown
 time | node  | left  |LP iter|LP it/n|mem/heur|mdpt |vars |cons |rows |cuts |sepa|confs|strbr|  dualbound   | primalbound  |  gap   | compl. 
  1.3s|     7 |     8 |   563 |  16.7 |  3811k |   5 | 828 |  39 |  39 |   0 |  1 |   0 |   0 | 9.000000e+00 | 1.000000e+01 |  11.11%| unknown
 time | node  | left  |LP iter|LP it/n|mem/heur|mdpt |vars |cons |rows |cuts |sepa|confs|strbr|  dualbound   | primalbound  |  gap   | compl. 
  1.6s|     8 |     9 |   773 |  44.3 |  4496k |   5 | 977 |  39 |  39 |   0 |  1 |   0 |   0 | 9.000000e+00 | 1.000000e+01 |  11.11%| unknown
 time | node  | left  |LP iter|LP it/n|mem/heur|mdpt |vars |cons |rows |cuts |sepa|confs|strbr|  dualbound   | primalbound  |  gap   | compl. 
  1.7s|     9 |    10 |   786 |  40.4 |  4552k |   6 | 978 |  39 |  39 |   0 |  1 |   0 |   0 | 9.000000e+00 | 1.000000e+01 |  11.11%| unknown
 time | node  | left  |LP iter|LP it/n|mem/heur|mdpt |vars |cons |rows |cuts |sepa|confs|strbr|  dualbound   | primalbound  |  gap   | compl. 
  1.8s|    10 |    11 |   805 |  38.0 |  4559k |   7 | 979 |  39 |  39 |   0 |  1 |   0 |   0 | 9.000000e+00 | 1.000000e+01 |  11.11%| unknown
 time | node  | left  |LP iter|LP it/n|mem/heur|mdpt |vars |cons |rows |cuts |sepa|confs|strbr|  dualbound   | primalbound  |  gap   | compl. 
  1.9s|    11 |    12 |   901 |  43.8 |  4564k |   8 | 979 |  39 |  39 |   0 |  1 |   0 |   0 | 9.000000e+00 | 1.000000e+01 |  11.11%| unknown
 time | node  | left  |LP iter|LP it/n|mem/heur|mdpt |vars |cons |rows |cuts |sepa|confs|strbr|  dualbound   | primalbound  |  gap   | compl. 
  2.0s|    12 |    13 |  1065 |  54.7 |  4917k |   8 |1214 |  39 |  39 |   0 |  1 |   0 |   0 | 9.000000e+00 | 1.000000e+01 |  11.11%| unknown
 time | node  | left  |LP iter|LP it/n|mem/heur|mdpt |vars |cons |rows |cuts |sepa|confs|strbr|  dualbound   | primalbound  |  gap   | compl. 
  2.2s|    13 |    14 |  1288 |  68.8 |  6125k |   8 |1362 |  39 |  39 |   0 |  1 |   0 |   0 | 9.000000e+00 | 1.000000e+01 |  11.11%| unknown
 time | node  | left  |LP iter|LP it/n|mem/heur|mdpt |vars |cons |rows |cuts |sepa|confs|strbr|  dualbound   | primalbound  |  gap   | compl. 
  2.3s|    14 |    15 |  1326 |  66.4 |  6258k |   8 |1372 |  39 |  39 |   0 |  1 |   0 |   0 | 9.000000e+00 | 1.000000e+01 |  11.11%| unknown
 time | node  | left  |LP iter|LP it/n|mem/heur|mdpt |vars |cons |rows |cuts |sepa|confs|strbr|  dualbound   | primalbound  |  gap   | compl. 
  2.4s|    15 |    16 |  1489 |  73.3 |  6295k |   8 |1372 |  39 |  39 |   0 |  1 |   0 |   0 | 9.000000e+00 | 1.000000e+01 |  11.11%| unknown
 time | node  | left  |LP iter|LP it/n|mem/heur|mdpt |vars |cons |rows |cuts |sepa|confs|strbr|  dualbound   | primalbound  |  gap   | compl. 
  2.6s|    16 |    17 |  1651 |  79.2 |  6916k |   9 |1479 |  39 |  39 |   0 |  1 |   0 |   0 | 9.000000e+00 | 1.000000e+01 |  11.11%| unknown
 time | node  | left  |LP iter|LP it/n|mem/heur|mdpt |vars |cons |rows |cuts |sepa|confs|strbr|  dualbound   | primalbound  |  gap   | compl. 
  2.7s|    17 |    18 |  1723 |  78.8 |  7009k |   9 |1487 |  39 |  39 |   0 |  1 |   0 |   0 | 9.000000e+00 | 1.000000e+01 |  11.11%| unknown
 time | node  | left  |LP iter|LP it/n|mem/heur|mdpt |vars |cons |rows |cuts |sepa|confs|strbr|  dualbound   | primalbound  |  gap   | compl. 
  2.8s|    18 |    19 |  1789 |  78.0 |  7055k |   9 |1488 |  39 |  39 |   0 |  1 |   0 |   0 | 9.000000e+00 | 1.000000e+01 |  11.11%| unknown
 time | node  | left  |LP iter|LP it/n|mem/heur|mdpt |vars |cons |rows |cuts |sepa|confs|strbr|  dualbound   | primalbound  |  gap   | compl. 
  2.9s|    19 |    18 |  1794 |  73.9 |  7069k |   9 |1488 |  39 |  39 |   0 |  0 |   0 |   0 | 9.000000e+00 | 1.000000e+01 |  11.11%| unknown
 time | node  | left  |LP iter|LP it/n|mem/heur|mdpt |vars |cons |rows |cuts |sepa|confs|strbr|  dualbound   | primalbound  |  gap   | compl. 
  3.0s|    20 |    19 |  1806 |  70.7 |  7077k |  10 |1493 |  39 |  39 |   0 |  1 |   0 |   0 | 9.000000e+00 | 1.000000e+01 |  11.11%| unknown
 time | node  | left  |LP iter|LP it/n|mem/heur|mdpt |vars |cons |rows |cuts |sepa|confs|strbr|  dualbound   | primalbound  |  gap   | compl. 
  3.1s|    21 |    20 |  1842 |  69.0 |  7083k |  11 |1534 |  39 |  39 |   0 |  1 |   0 |   0 | 9.000000e+00 | 1.000000e+01 |  11.11%| unknown
 time | node  | left  |LP iter|LP it/n|mem/heur|mdpt |vars |cons |rows |cuts |sepa|confs|strbr|  dualbound   | primalbound  |  gap   | compl. 
  3.2s|    22 |    21 |  1848 |  66.0 |  7085k |  12 |1534 |  39 |  39 |   0 |  1 |   0 |   0 | 9.000000e+00 | 1.000000e+01 |  11.11%| unknown
 time | node  | left  |LP iter|LP it/n|mem/heur|mdpt |vars |cons |rows |cuts |sepa|confs|strbr|  dualbound   | primalbound  |  gap   | compl. 
  3.3s|    23 |    22 |  1853 |  63.2 |  7089k |  13 |1534 |  39 |  39 |   0 |  1 |   0 |   0 | 9.000000e+00 | 1.000000e+01 |  11.11%| unknown
 time | node  | left  |LP iter|LP it/n|mem/heur|mdpt |vars |cons |rows |cuts |sepa|confs|strbr|  dualbound   | primalbound  |  gap   | compl. 
  3.4s|    24 |    23 |  1917 |  63.2 |  7090k |  14 |1564 |  39 |  39 |   0 |  1 |   0 |   0 | 9.000000e+00 | 1.000000e+01 |  11.11%| unknown
 time | node  | left  |LP iter|LP it/n|mem/heur|mdpt |vars |cons |rows |cuts |sepa|confs|strbr|  dualbound   | primalbound  |  gap   | compl. 
  3.5s|    25 |    24 |  1945 |  61.8 |  7122k |  15 |1565 |  39 |  39 |   0 |  1 |   0 |   0 | 9.000000e+00 | 1.000000e+01 |  11.11%| unknown
 time | node  | left  |LP iter|LP it/n|mem/heur|mdpt |vars |cons |rows |cuts |sepa|confs|strbr|  dualbound   | primalbound  |  gap   | compl. 
  3.6s|    26 |    25 |  1956 |  59.7 |  7124k |  15 |1565 |  39 |  39 |   0 |  1 |   0 |   0 | 9.000000e+00 | 1.000000e+01 |  11.11%| unknown
 time | node  | left  |LP iter|LP it/n|mem/heur|mdpt |vars |cons |rows |cuts |sepa|confs|strbr|  dualbound   | primalbound  |  gap   | compl. 
  3.7s|    27 |    26 |  1961 |  57.6 |  7133k |  15 |1565 |  39 |  39 |   0 |  1 |   0 |   0 | 9.000000e+00 | 1.000000e+01 |  11.11%| unknown
 time | node  | left  |LP iter|LP it/n|mem/heur|mdpt |vars |cons |rows |cuts |sepa|confs|strbr|  dualbound   | primalbound  |  gap   | compl. 
  3.8s|    28 |    27 |  1962 |  55.5 |  7133k |  16 |1565 |  39 |  39 |   0 |  1 |   0 |   0 | 9.000000e+00 | 1.000000e+01 |  11.11%| unknown
 time | node  | left  |LP iter|LP it/n|mem/heur|mdpt |vars |cons |rows |cuts |sepa|confs|strbr|  dualbound   | primalbound  |  gap   | compl. 
  3.9s|    29 |    28 |  1989 |  54.5 |  7133k |  17 |1608 |  39 |  39 |   0 |  1 |   0 |   0 | 9.000000e+00 | 1.000000e+01 |  11.11%| unknown
 time | node  | left  |LP iter|LP it/n|mem/heur|mdpt |vars |cons |rows |cuts |sepa|confs|strbr|  dualbound   | primalbound  |  gap   | compl. 
  4.1s|    30 |    29 |  2019 |  53.7 |  7133k |  18 |1627 |  39 |  39 |   0 |  1 |   0 |   0 | 9.000000e+00 | 1.000000e+01 |  11.11%| unknown
 time | node  | left  |LP iter|LP it/n|mem/heur|mdpt |vars |cons |rows |cuts |sepa|confs|strbr|  dualbound   | primalbound  |  gap   | compl. 
d 4.2s|    31 |     0 |  2121 |  55.3 |pscostdi|  19 |1716 |  39 |  39 |   0 |  1 |   0 |   0 | 9.000000e+00 | 9.000000e+00 |   0.00%| 100.00%

SCIP Status        : problem is solved [optimal solution found]
Solving Time (sec) : 4.21
Solving Nodes      : 31
Primal Bound       : +9.00000000000000e+00 (5 solutions)
Dual Bound         : +9.00000000000000e+00
Gap                : 0.00 %
Running with parallel: True bidir: True symbreak: True
Number of Nodes:  39
47.09115123316307% holds
starting cheapest insertion heuristic
Heuristic without TSP improvement:  11
Heuristic without TSP improvement time:  0.1
Heuristic Sol:  10
Heuristic total time:  0.1
[[14, 8, 26, 4, 12, 3, 1, 9, 17], [0, 10, 29, 28, 25, 6], [15, 32, 7], [16, 27, 11], [24, 21, 19], [38, 35, 22], [37, 18, 33, 31], [36, 23, 13], [34, 5], [30, 2, 20]]
Instance path:  /home/htc/mghannam/SCRATCH/lccp-rust/data/at84_ftv38.npcc
Timelimit:  7200
Heuristic without TSP improvement:  11
Heuristic without TSP improvement time:  0.1
Heuristic Sol:  10
Heuristic total time:  0.2
at 1 zero_duals: 29
at1, LP obj: 10.0 n_added_paths: 195
at 1 zero_duals: 29
at1, LP obj: 10.0 n_added_paths: 42
at 1 zero_duals: 13
at1, LP obj: 10.0 n_added_paths: 179
at 1 zero_duals: 10
at1, LP obj: 9.3 n_added_paths: 106
at 1 zero_duals: 5
at1, LP obj: 8.677083333333332 n_added_paths: 111
at 1 zero_duals: 8
at1, LP obj: 8.383333333333333 n_added_paths: 25
at 1 zero_duals: 3
Switching to elementary pricing
at1, LP obj: 8.286764705882353 n_added_paths: 29
updated lowerbound from 1.0 to 8
at 1 zero_duals: 8
Switching to elementary pricing
at1, LP obj: 8.222222222222221 n_added_paths: 13
at 1 zero_duals: 10
Switching to elementary pricing
at1, LP obj: 8.2 n_added_paths: 1
at 1 zero_duals: 10
Switching to elementary pricing
at1, LP obj: 8.173913043478262 n_added_paths: 2
at 1 zero_duals: 7
Switching to elementary pricing
at1, LP obj: 8.166666666666666 n_added_paths: 2
updated lowerbound from 8.0 to 9
at 1 zero_duals: 7
Switching to elementary pricing
at1, LP obj: 8.166666666666666 n_added_paths: 0
at 2 zero_duals: 7
Switching to elementary pricing
at2, LP obj: 8.173913043478262 n_added_paths: 1
at 2 zero_duals: 6
Switching to elementary pricing
at2, LP obj: 8.172131147540982 n_added_paths: 1
at 2 zero_duals: 6
Switching to elementary pricing
at2, LP obj: 8.171945701357465 n_added_paths: 0
at 4 zero_duals: 7
Switching to elementary pricing
at4, LP obj: 8.309090909090909 n_added_paths: 56
at 4 zero_duals: 7
Switching to elementary pricing
at4, LP obj: 8.25 n_added_paths: 0
at 6 zero_duals: 7
Switching to elementary pricing
at6, LP obj: 8.25 n_added_paths: 0
at 8 zero_duals: 8
Switching to elementary pricing
at8, LP obj: 8.304347826086957 n_added_paths: 13
at 8 zero_duals: 7
Switching to elementary pricing
at8, LP obj: 8.25 n_added_paths: 2
at 8 zero_duals: 5
Switching to elementary pricing
at8, LP obj: 8.25 n_added_paths: 1
at 8 zero_duals: 7
Switching to elementary pricing
at8, LP obj: 8.25 n_added_paths: 0
at 9 zero_duals: 8
Switching to elementary pricing
at9, LP obj: 8.26086956521739 n_added_paths: 0
at 12 zero_duals: 8
Switching to elementary pricing
at12, LP obj: 8.26086956521739 n_added_paths: 0
at 13 zero_duals: 22
Switching to elementary pricing
at13, LP obj: 8.5 n_added_paths: 3
at 13 zero_duals: 6
Switching to elementary pricing
at13, LP obj: 8.454545454545455 n_added_paths: 116
at 13 zero_duals: 8
Switching to elementary pricing
at13, LP obj: 8.413793103448276 n_added_paths: 26
at 13 zero_duals: 6
Switching to elementary pricing
at13, LP obj: 8.395543175487465 n_added_paths: 2
at 13 zero_duals: 2
Switching to elementary pricing
at13, LP obj: 8.39102564102564 n_added_paths: 2
at 13 zero_duals: 2
Switching to elementary pricing
at13, LP obj: 8.39102564102564 n_added_paths: 0
at 15 zero_duals: 8
Switching to elementary pricing
at15, LP obj: 8.268292682926829 n_added_paths: 1
at 15 zero_duals: 9
Switching to elementary pricing
at15, LP obj: 8.267857142857142 n_added_paths: 0
at 18 zero_duals: 8
Switching to elementary pricing
at18, LP obj: 8.295454545454547 n_added_paths: 1
at 18 zero_duals: 7
Switching to elementary pricing
at18, LP obj: 8.28125 n_added_paths: 0
at 20 zero_duals: 8
Switching to elementary pricing
at20, LP obj: 8.295454545454545 n_added_paths: 0
at 19 zero_duals: 11
Switching to elementary pricing
at19, LP obj: 8.75 n_added_paths: 228
at 19 zero_duals: 8
Switching to elementary pricing
at19, LP obj: 8.55 n_added_paths: 4
at 19 zero_duals: 16
Switching to elementary pricing
at19, LP obj: 8.5 n_added_paths: 3
at 19 zero_duals: 16
Switching to elementary pricing
at19, LP obj: 8.5 n_added_paths: 0
at 21 zero_duals: 9
Switching to elementary pricing
at21, LP obj: 8.777777777777779 n_added_paths: 146
at 21 zero_duals: 11
Switching to elementary pricing
at21, LP obj: 8.444444444444445 n_added_paths: 2
at 21 zero_duals: 8
Switching to elementary pricing
at21, LP obj: 8.432432432432432 n_added_paths: 0
at 25 zero_duals: 10
Switching to elementary pricing
at25, LP obj: 8.785714285714285 n_added_paths: 10
at 25 zero_duals: 20
Switching to elementary pricing
at25, LP obj: 8.75 n_added_paths: 0
at 24 zero_duals: 20
Switching to elementary pricing
at24, LP obj: 8.75 n_added_paths: 0
at 23 zero_duals: 9
at23, LP obj: 8.571428571428571 n_added_paths: 83
at 23 zero_duals: 5
Switching to elementary pricing
at23, LP obj: 8.428571428571429 n_added_paths: 21
at 23 zero_duals: 7
Switching to elementary pricing
at23, LP obj: 8.428571428571429 n_added_paths: 1
at 23 zero_duals: 6
Switching to elementary pricing
at23, LP obj: 8.428571428571429 n_added_paths: 2
at 23 zero_duals: 8
Switching to elementary pricing
at23, LP obj: 8.418604651162791 n_added_paths: 0
at 22 zero_duals: 14
Switching to elementary pricing
at22, LP obj: 8.4 n_added_paths: 8
at 22 zero_duals: 13
Switching to elementary pricing
at22, LP obj: 8.4 n_added_paths: 0
at 27 zero_duals: 13
Switching to elementary pricing
at27, LP obj: 8.555555555555555 n_added_paths: 1
at 27 zero_duals: 12
Switching to elementary pricing
at27, LP obj: 8.555555555555555 n_added_paths: 0
at 26 zero_duals: 38
Switching to elementary pricing
at26, LP obj: 1e+20 n_added_paths: 0
updated lowerbound from 9.0 to 100000000000000000000
at 35 zero_duals: 13
Switching to elementary pricing
at35, LP obj: 8.428571428571429 n_added_paths: 5
at 35 zero_duals: 12
Switching to elementary pricing
at35, LP obj: 8.428571428571429 n_added_paths: 0
at 38 zero_duals: 5
Switching to elementary pricing
at38, LP obj: 8.48 n_added_paths: 37
at 38 zero_duals: 11
Switching to elementary pricing
at38, LP obj: 8.444444444444445 n_added_paths: 4
at 38 zero_duals: 10
Switching to elementary pricing
at38, LP obj: 8.444444444444445 n_added_paths: 0
at 40 zero_duals: 9
Switching to elementary pricing
at40, LP obj: 8.470588235294118 n_added_paths: 0
at 42 zero_duals: 9
Switching to elementary pricing
at42, LP obj: 8.472222222222223 n_added_paths: 0
at 44 zero_duals: 7
Switching to elementary pricing
at44, LP obj: 8.733333333333333 n_added_paths: 18
at 44 zero_duals: 5
Switching to elementary pricing
at44, LP obj: 8.5625 n_added_paths: 8
at 44 zero_duals: 7
Switching to elementary pricing
at44, LP obj: 8.560975609756097 n_added_paths: 4
at 44 zero_duals: 7
Switching to elementary pricing
at44, LP obj: 8.560975609756097 n_added_paths: 0
at 46 zero_duals: 7
Switching to elementary pricing
at46, LP obj: 8.733333333333333 n_added_paths: 1
at 46 zero_duals: 8
Switching to elementary pricing
at46, LP obj: 8.7 n_added_paths: 0
at 45 zero_duals: 17
Switching to elementary pricing
at45, LP obj: 8.5 n_added_paths: 0
at 50 zero_duals: 17
Switching to elementary pricing
at50, LP obj: 8.5 n_added_paths: 0
at 52 zero_duals: 17
Switching to elementary pricing
at52, LP obj: 8.5 n_added_paths: 0
at 54 zero_duals: 14
at54, LP obj: 8.75 n_added_paths: 40
at 54 zero_duals: 8
Switching to elementary pricing
at54, LP obj: 8.666666666666668 n_added_paths: 3
at 54 zero_duals: 7
Switching to elementary pricing
at54, LP obj: 8.666666666666668 n_added_paths: 0
at 56 zero_duals: 6
Switching to elementary pricing
at56, LP obj: 8.8 n_added_paths: 12
at 56 zero_duals: 8
Switching to elementary pricing
at56, LP obj: 8.8 n_added_paths: 7
at 56 zero_duals: 9
Switching to elementary pricing
at56, LP obj: 8.8 n_added_paths: 0
at 58 zero_duals: 16
Switching to elementary pricing
at58, LP obj: 9.0 n_added_paths: 6
at 58 zero_duals: 10
Switching to elementary pricing
at58, LP obj: 9.0 n_added_paths: 83
at 58 zero_duals: 19
Switching to elementary pricing
at58, LP obj: 9.0 n_added_paths: 0
Best solution found:
t_[16, 11, 15, 16] 1.0 1.0
checking cycle [16, 11, 15, 16]
[16, 11, 15, 16] 290 289
t_[34, 7, 32, 34] 1.0 1.0
checking cycle [34, 7, 32, 34]
[34, 7, 32, 34] 218 170
[27, 17, 14, 8, 26, 19, 27] 1.0 1.0
checking cycle [27, 17, 14, 8, 26, 19, 27]
[27, 17, 14, 8, 26, 19, 27] 256 239
[36, 31, 18, 33, 36] 1.0 1.0
checking cycle [36, 31, 18, 33, 36]
[36, 31, 18, 33, 36] 203 193
[23, 20, 2, 0, 6, 23] 1.0 1.0
checking cycle [23, 20, 2, 0, 6, 23]
[23, 20, 2, 0, 6, 23] 270 254
[38, 21, 22, 35, 38] 1.0 1.0
checking cycle [38, 21, 22, 35, 38]
[38, 21, 22, 35, 38] 193 189
[24, 5, 1, 3, 13, 12, 24] 1.0 1.0
checking cycle [24, 5, 1, 3, 13, 12, 24]
[24, 5, 1, 3, 13, 12, 24] 269 267
[29, 10, 25, 4, 9, 28, 29] 1.0 1.0
checking cycle [29, 10, 25, 4, 9, 28, 29]
[29, 10, 25, 4, 9, 28, 29] 244 241
[37, 30, 37] 1.0 1.0
checking cycle [37, 30, 37]
[37, 30, 37] 194 118
